p cnf 794 3023
1 -2 -3 0
2 -1 -3 0
-1 -2 3 0
2 1 3 0
-4 -3 0
2 -5 -6 0
5 -2 -6 0
6 -2 -5 0
6 2 5 0
-7 6 0
-1 8 0
-5 8 0
-9 8 0
-10 8 0
-11 8 0
-12 8 0
-13 8 0
-14 8 0
-15 8 0
-16 8 0
-17 8 0
18 0
2 -8 -19 0
-2 8 -19 0
-2 -8 19 0
2 8 19 0
-20 19 0
1 21 0
5 21 0
9 21 0
10 21 0
11 21 0
12 21 0
13 21 0
14 21 0
15 21 0
16 21 0
17 21 0
-22 0
-2 21 -23 0
2 -21 -23 0
23 -21 -2 0
2 21 23 0
-24 -23 0
5 -25 -26 0
25 -5 -26 0
-5 -25 26 0
5 25 26 0
-4 -26 0
25 -9 -27 0
9 -25 -27 0
27 -25 -9 0
27 25 9 0
-7 27 0
-5 28 0
-9 28 0
-10 28 0
-11 28 0
-12 28 0
-13 28 0
-14 28 0
-15 28 0
-16 28 0
-17 28 0
29 0
25 -28 -30 0
-25 28 -30 0
-25 -28 30 0
25 28 30 0
-20 30 0
5 31 0
9 31 0
10 31 0
11 31 0
12 31 0
13 31 0
14 31 0
15 31 0
16 31 0
17 31 0
-32 0
-25 31 -33 0
25 -31 -33 0
33 -31 -25 0
25 31 33 0
-24 -33 0
9 -34 -35 0
34 -9 -35 0
-9 -34 35 0
9 34 35 0
-4 -35 0
34 -10 -36 0
10 -34 -36 0
36 -34 -10 0
36 34 10 0
-7 36 0
-9 37 0
-10 37 0
-11 37 0
-12 37 0
-13 37 0
-14 37 0
-15 37 0
-16 37 0
-17 37 0
38 0
34 -37 -39 0
-34 37 -39 0
-34 -37 39 0
34 37 39 0
-20 39 0
9 40 0
10 40 0
11 40 0
12 40 0
13 40 0
14 40 0
15 40 0
16 40 0
17 40 0
-41 0
-34 40 -42 0
34 -40 -42 0
42 -40 -34 0
34 40 42 0
-24 -42 0
10 -43 -44 0
43 -10 -44 0
-10 -43 44 0
10 43 44 0
-4 -44 0
43 -11 -45 0
11 -43 -45 0
45 -43 -11 0
45 43 11 0
-7 45 0
-10 46 0
-11 46 0
-12 46 0
-13 46 0
-14 46 0
-15 46 0
-16 46 0
-17 46 0
47 0
43 -46 -48 0
-43 46 -48 0
-43 -46 48 0
43 46 48 0
-20 48 0
10 49 0
11 49 0
12 49 0
13 49 0
14 49 0
15 49 0
16 49 0
17 49 0
-50 0
-43 49 -51 0
43 -49 -51 0
51 -49 -43 0
43 49 51 0
-24 -51 0
11 -52 -53 0
52 -11 -53 0
-11 -52 53 0
11 52 53 0
-4 -53 0
52 -12 -54 0
12 -52 -54 0
54 -52 -12 0
54 52 12 0
-7 54 0
-11 55 0
-12 55 0
-13 55 0
-14 55 0
-15 55 0
-16 55 0
-17 55 0
56 0
52 -55 -57 0
-52 55 -57 0
-52 -55 57 0
52 55 57 0
-20 57 0
11 58 0
12 58 0
13 58 0
14 58 0
15 58 0
16 58 0
17 58 0
-59 0
-52 58 -60 0
52 -58 -60 0
60 -58 -52 0
52 58 60 0
-24 -60 0
12 -61 -62 0
61 -12 -62 0
-12 -61 62 0
12 61 62 0
-4 -62 0
61 -13 -63 0
13 -61 -63 0
63 -61 -13 0
63 61 13 0
-7 63 0
-12 64 0
-13 64 0
-14 64 0
-15 64 0
-16 64 0
-17 64 0
65 0
61 -64 -66 0
-61 64 -66 0
-61 -64 66 0
61 64 66 0
-20 66 0
12 67 0
13 67 0
14 67 0
15 67 0
16 67 0
17 67 0
-68 0
-61 67 -69 0
61 -67 -69 0
69 -67 -61 0
61 67 69 0
-24 -69 0
13 -70 -71 0
70 -13 -71 0
-13 -70 71 0
13 70 71 0
-4 -71 0
70 -14 -72 0
14 -70 -72 0
72 -70 -14 0
72 70 14 0
-7 72 0
70 -64 -73 0
64 -70 -73 0
-64 -70 73 0
70 64 73 0
-20 73 0
67 -70 -74 0
70 -67 -74 0
74 -67 -70 0
70 67 74 0
-24 -74 0
14 -75 -76 0
75 -14 -76 0
-14 -75 76 0
14 75 76 0
-4 -76 0
75 -15 -77 0
15 -75 -77 0
77 -75 -15 0
77 75 15 0
-7 77 0
75 -64 -78 0
64 -75 -78 0
-64 -75 78 0
75 64 78 0
-20 78 0
67 -75 -79 0
75 -67 -79 0
79 -67 -75 0
75 67 79 0
-24 -79 0
15 -80 -81 0
80 -15 -81 0
-15 -80 81 0
15 80 81 0
-4 -81 0
80 -16 -82 0
16 -80 -82 0
82 -80 -16 0
82 80 16 0
-7 82 0
80 -64 -83 0
64 -80 -83 0
-64 -80 83 0
80 64 83 0
-20 83 0
67 -80 -84 0
80 -67 -84 0
84 -67 -80 0
80 67 84 0
-24 -84 0
16 -85 -86 0
85 -16 -86 0
-16 -85 86 0
16 85 86 0
-4 -86 0
85 -17 -87 0
17 -85 -87 0
87 -85 -17 0
87 85 17 0
-7 87 0
85 -64 -88 0
64 -85 -88 0
-64 -85 88 0
85 64 88 0
-20 88 0
67 -85 -89 0
85 -67 -89 0
89 -67 -85 0
85 67 89 0
-24 -89 0
17 -90 -91 0
90 -17 -91 0
-17 -90 91 0
17 90 91 0
-4 -91 0
-12 90 -92 0
12 -90 -92 0
92 -90 -12 0
92 90 12 0
-7 92 0
90 -64 -93 0
64 -90 -93 0
-64 -90 93 0
90 64 93 0
-20 93 0
67 -90 -94 0
90 -67 -94 0
94 -67 -90 0
90 67 94 0
-24 -94 0
95 -96 -97 0
96 -95 -97 0
-95 -96 97 0
96 95 97 0
-4 -97 0
96 -98 -99 0
98 -96 -99 0
99 -96 -98 0
99 96 98 0
-7 99 0
-95 100 0
-98 100 0
-101 100 0
-102 100 0
-103 100 0
-104 100 0
-105 100 0
-106 100 0
107 0
96 -100 -108 0
-96 100 -108 0
-96 -100 108 0
96 100 108 0
-20 108 0
95 109 0
98 109 0
101 109 0
102 109 0
103 109 0
104 109 0
105 109 0
106 109 0
-110 0
-96 109 -111 0
96 -109 -111 0
111 -109 -96 0
96 109 111 0
-24 -111 0
98 -112 -113 0
112 -98 -113 0
-98 -112 113 0
98 112 113 0
-4 -113 0
112 -101 -114 0
101 -112 -114 0
114 -112 -101 0
114 112 101 0
-7 114 0
-98 115 0
-101 115 0
-102 115 0
-103 115 0
-104 115 0
-105 115 0
-106 115 0
116 0
112 -115 -117 0
-112 115 -117 0
-112 -115 117 0
112 115 117 0
-20 117 0
98 118 0
101 118 0
102 118 0
103 118 0
104 118 0
105 118 0
106 118 0
-119 0
-112 118 -120 0
112 -118 -120 0
120 -118 -112 0
112 118 120 0
-24 -120 0
101 -121 -122 0
121 -101 -122 0
-101 -121 122 0
101 121 122 0
-4 -122 0
121 -102 -123 0
102 -121 -123 0
123 -121 -102 0
123 121 102 0
-7 123 0
-101 124 0
-102 124 0
-103 124 0
-104 124 0
-105 124 0
-106 124 0
125 0
121 -124 -126 0
-121 124 -126 0
-121 -124 126 0
121 124 126 0
-20 126 0
101 127 0
102 127 0
103 127 0
104 127 0
105 127 0
106 127 0
-128 0
-121 127 -129 0
121 -127 -129 0
129 -127 -121 0
121 127 129 0
-24 -129 0
102 -130 -131 0
130 -102 -131 0
-102 -130 131 0
102 130 131 0
-4 -131 0
130 -103 -132 0
103 -130 -132 0
132 -130 -103 0
132 130 103 0
-7 132 0
-102 133 0
-103 133 0
-104 133 0
-105 133 0
-106 133 0
102 103 104 105 106 -133 0
130 -133 -134 0
-130 133 -134 0
-130 -133 134 0
130 133 134 0
-20 134 0
102 135 0
103 135 0
104 135 0
105 135 0
106 135 0
-136 0
-130 135 -137 0
130 -135 -137 0
137 -135 -130 0
130 135 137 0
-24 -137 0
103 -138 -139 0
138 -103 -139 0
-103 -138 139 0
103 138 139 0
-4 -139 0
138 -104 -140 0
104 -138 -140 0
140 -138 -104 0
140 138 104 0
-7 140 0
138 -133 -141 0
133 -138 -141 0
-133 -138 141 0
138 133 141 0
-20 141 0
135 -138 -142 0
138 -135 -142 0
142 -135 -138 0
138 135 142 0
-24 -142 0
104 -143 -144 0
143 -104 -144 0
-104 -143 144 0
104 143 144 0
-4 -144 0
143 -105 -145 0
105 -143 -145 0
145 -143 -105 0
145 143 105 0
-7 145 0
143 -133 -146 0
133 -143 -146 0
-133 -143 146 0
143 133 146 0
-20 146 0
135 -143 -147 0
143 -135 -147 0
147 -135 -143 0
143 135 147 0
-24 -147 0
105 -148 -149 0
148 -105 -149 0
-105 -148 149 0
105 148 149 0
-4 -149 0
148 -106 -150 0
106 -148 -150 0
150 -148 -106 0
150 148 106 0
-7 150 0
148 -133 -151 0
133 -148 -151 0
-133 -148 151 0
148 133 151 0
-20 151 0
135 -148 -152 0
148 -135 -152 0
152 -135 -148 0
148 135 152 0
-24 -152 0
106 -153 -154 0
153 -106 -154 0
-106 -153 154 0
106 153 154 0
-4 -154 0
-102 153 -155 0
102 -153 -155 0
155 -153 -102 0
155 153 102 0
-7 155 0
153 -133 -156 0
133 -153 -156 0
-133 -153 156 0
153 133 156 0
-20 156 0
135 -153 -157 0
153 -135 -157 0
157 -135 -153 0
153 135 157 0
-24 -157 0
158 -159 -160 0
159 -158 -160 0
-158 -159 160 0
159 158 160 0
-4 -160 0
159 -161 -162 0
161 -159 -162 0
162 -159 -161 0
162 159 161 0
-7 162 0
-158 163 0
-161 163 0
-164 163 0
-165 163 0
-166 163 0
-167 163 0
-168 163 0
-169 163 0
-170 163 0
-171 163 0
-172 163 0
173 0
159 -163 -174 0
-159 163 -174 0
-159 -163 174 0
159 163 174 0
-20 174 0
158 175 0
161 175 0
164 175 0
165 175 0
166 175 0
167 175 0
168 175 0
169 175 0
170 175 0
171 175 0
172 175 0
-176 0
-159 175 -177 0
159 -175 -177 0
177 -175 -159 0
159 175 177 0
-24 -177 0
161 -178 -179 0
178 -161 -179 0
-161 -178 179 0
161 178 179 0
-4 -179 0
178 -164 -180 0
164 -178 -180 0
180 -178 -164 0
180 178 164 0
-7 180 0
-161 181 0
-164 181 0
-165 181 0
-166 181 0
-167 181 0
-168 181 0
-169 181 0
-170 181 0
-171 181 0
-172 181 0
182 0
178 -181 -183 0
-178 181 -183 0
-178 -181 183 0
178 181 183 0
-20 183 0
161 184 0
164 184 0
165 184 0
166 184 0
167 184 0
168 184 0
169 184 0
170 184 0
171 184 0
172 184 0
-185 0
-178 184 -186 0
178 -184 -186 0
186 -184 -178 0
178 184 186 0
-24 -186 0
164 -187 -188 0
187 -164 -188 0
-164 -187 188 0
164 187 188 0
-4 -188 0
187 -165 -189 0
165 -187 -189 0
189 -187 -165 0
189 187 165 0
-7 189 0
-164 190 0
-165 190 0
-166 190 0
-167 190 0
-168 190 0
-169 190 0
-170 190 0
-171 190 0
-172 190 0
191 0
187 -190 -192 0
-187 190 -192 0
-187 -190 192 0
187 190 192 0
-20 192 0
164 193 0
165 193 0
166 193 0
167 193 0
168 193 0
169 193 0
170 193 0
171 193 0
172 193 0
-194 0
-187 193 -195 0
187 -193 -195 0
195 -193 -187 0
187 193 195 0
-24 -195 0
165 -196 -197 0
196 -165 -197 0
-165 -196 197 0
165 196 197 0
-4 -197 0
196 -166 -198 0
166 -196 -198 0
198 -196 -166 0
198 196 166 0
-7 198 0
-165 199 0
-166 199 0
-167 199 0
-168 199 0
-169 199 0
-170 199 0
-171 199 0
-172 199 0
200 0
196 -199 -201 0
-196 199 -201 0
-196 -199 201 0
196 199 201 0
-20 201 0
165 202 0
166 202 0
167 202 0
168 202 0
169 202 0
170 202 0
171 202 0
172 202 0
-203 0
-196 202 -204 0
196 -202 -204 0
204 -202 -196 0
196 202 204 0
-24 -204 0
166 -205 -206 0
205 -166 -206 0
-166 -205 206 0
166 205 206 0
-4 -206 0
205 -167 -207 0
167 -205 -207 0
207 -205 -167 0
207 205 167 0
-7 207 0
-166 208 0
-167 208 0
-168 208 0
-169 208 0
-170 208 0
-171 208 0
-172 208 0
209 0
205 -208 -210 0
-205 208 -210 0
-205 -208 210 0
205 208 210 0
-20 210 0
166 211 0
167 211 0
168 211 0
169 211 0
170 211 0
171 211 0
172 211 0
-212 0
-205 211 -213 0
205 -211 -213 0
213 -211 -205 0
205 211 213 0
-24 -213 0
167 -214 -215 0
214 -167 -215 0
-167 -214 215 0
167 214 215 0
-4 -215 0
214 -168 -216 0
168 -214 -216 0
216 -214 -168 0
216 214 168 0
-7 216 0
-167 217 0
-168 217 0
-169 217 0
-170 217 0
-171 217 0
-172 217 0
218 0
214 -217 -219 0
-214 217 -219 0
-214 -217 219 0
214 217 219 0
-20 219 0
167 220 0
168 220 0
169 220 0
170 220 0
171 220 0
172 220 0
-221 0
-214 220 -222 0
214 -220 -222 0
222 -220 -214 0
214 220 222 0
-24 -222 0
168 -223 -224 0
223 -168 -224 0
-168 -223 224 0
168 223 224 0
-4 -224 0
223 -169 -225 0
169 -223 -225 0
225 -223 -169 0
225 223 169 0
-7 225 0
223 -217 -226 0
217 -223 -226 0
-217 -223 226 0
223 217 226 0
-20 226 0
220 -223 -227 0
223 -220 -227 0
227 -220 -223 0
223 220 227 0
-24 -227 0
169 -228 -229 0
228 -169 -229 0
-169 -228 229 0
169 228 229 0
-4 -229 0
228 -170 -230 0
170 -228 -230 0
230 -228 -170 0
230 228 170 0
-7 230 0
228 -217 -231 0
217 -228 -231 0
-217 -228 231 0
228 217 231 0
-20 231 0
220 -228 -232 0
228 -220 -232 0
232 -220 -228 0
228 220 232 0
-24 -232 0
170 -233 -234 0
233 -170 -234 0
-170 -233 234 0
170 233 234 0
-4 -234 0
233 -171 -235 0
171 -233 -235 0
235 -233 -171 0
235 233 171 0
-7 235 0
233 -217 -236 0
217 -233 -236 0
-217 -233 236 0
233 217 236 0
-20 236 0
220 -233 -237 0
233 -220 -237 0
237 -220 -233 0
233 220 237 0
-24 -237 0
171 -238 -239 0
238 -171 -239 0
-171 -238 239 0
171 238 239 0
-4 -239 0
238 -172 -240 0
172 -238 -240 0
240 -238 -172 0
240 238 172 0
-7 240 0
238 -217 -241 0
217 -238 -241 0
-217 -238 241 0
238 217 241 0
-20 241 0
220 -238 -242 0
238 -220 -242 0
242 -220 -238 0
238 220 242 0
-24 -242 0
172 -243 -244 0
243 -172 -244 0
-172 -243 244 0
172 243 244 0
-4 -244 0
-167 243 -245 0
167 -243 -245 0
245 -243 -167 0
245 243 167 0
-7 245 0
243 -217 -246 0
217 -243 -246 0
-217 -243 246 0
243 217 246 0
-20 246 0
220 -243 -247 0
243 -220 -247 0
247 -220 -243 0
243 220 247 0
-24 -247 0
248 -249 -250 0
249 -248 -250 0
-248 -249 250 0
249 248 250 0
-4 -250 0
249 -251 -252 0
251 -249 -252 0
252 -249 -251 0
252 249 251 0
-7 252 0
-248 253 0
-251 253 0
-254 253 0
-255 253 0
-256 253 0
-257 253 0
-258 253 0
-259 253 0
-260 253 0
-261 253 0
-262 253 0
263 0
249 -253 -264 0
-249 253 -264 0
-249 -253 264 0
249 253 264 0
-20 264 0
248 265 0
251 265 0
254 265 0
255 265 0
256 265 0
257 265 0
258 265 0
259 265 0
260 265 0
261 265 0
262 265 0
-266 0
-249 265 -267 0
249 -265 -267 0
267 -265 -249 0
249 265 267 0
-24 -267 0
251 -268 -269 0
268 -251 -269 0
-251 -268 269 0
251 268 269 0
-4 -269 0
268 -254 -270 0
254 -268 -270 0
270 -268 -254 0
270 268 254 0
-7 270 0
-251 271 0
-254 271 0
-255 271 0
-256 271 0
-257 271 0
-258 271 0
-259 271 0
-260 271 0
-261 271 0
-262 271 0
272 0
268 -271 -273 0
-268 271 -273 0
-268 -271 273 0
268 271 273 0
-20 273 0
251 274 0
254 274 0
255 274 0
256 274 0
257 274 0
258 274 0
259 274 0
260 274 0
261 274 0
262 274 0
-275 0
-268 274 -276 0
268 -274 -276 0
276 -274 -268 0
268 274 276 0
-24 -276 0
254 -277 -278 0
277 -254 -278 0
-254 -277 278 0
254 277 278 0
-4 -278 0
277 -255 -279 0
255 -277 -279 0
279 -277 -255 0
279 277 255 0
-7 279 0
-254 280 0
-255 280 0
-256 280 0
-257 280 0
-258 280 0
-259 280 0
-260 280 0
-261 280 0
-262 280 0
281 0
277 -280 -282 0
-277 280 -282 0
-277 -280 282 0
277 280 282 0
-20 282 0
254 283 0
255 283 0
256 283 0
257 283 0
258 283 0
259 283 0
260 283 0
261 283 0
262 283 0
-284 0
-277 283 -285 0
277 -283 -285 0
285 -283 -277 0
277 283 285 0
-24 -285 0
255 -286 -287 0
286 -255 -287 0
-255 -286 287 0
255 286 287 0
-4 -287 0
286 -256 -288 0
256 -286 -288 0
288 -286 -256 0
288 286 256 0
-7 288 0
-255 289 0
-256 289 0
-257 289 0
-258 289 0
-259 289 0
-260 289 0
-261 289 0
-262 289 0
290 0
286 -289 -291 0
-286 289 -291 0
-286 -289 291 0
286 289 291 0
-20 291 0
255 292 0
256 292 0
257 292 0
258 292 0
259 292 0
260 292 0
261 292 0
262 292 0
-293 0
-286 292 -294 0
286 -292 -294 0
294 -292 -286 0
286 292 294 0
-24 -294 0
256 -295 -296 0
295 -256 -296 0
-256 -295 296 0
256 295 296 0
-4 -296 0
295 -257 -297 0
257 -295 -297 0
297 -295 -257 0
297 295 257 0
-7 297 0
-256 298 0
-257 298 0
-258 298 0
-259 298 0
-260 298 0
-261 298 0
-262 298 0
299 0
295 -298 -300 0
-295 298 -300 0
-295 -298 300 0
295 298 300 0
-20 300 0
256 301 0
257 301 0
258 301 0
259 301 0
260 301 0
261 301 0
262 301 0
-302 0
-295 301 -303 0
295 -301 -303 0
303 -301 -295 0
295 301 303 0
-24 -303 0
257 -304 -305 0
304 -257 -305 0
-257 -304 305 0
257 304 305 0
-4 -305 0
304 -258 -306 0
258 -304 -306 0
306 -304 -258 0
306 304 258 0
-7 306 0
-257 307 0
-258 307 0
-259 307 0
-260 307 0
-261 307 0
-262 307 0
308 0
304 -307 -309 0
-304 307 -309 0
-304 -307 309 0
304 307 309 0
-20 309 0
257 310 0
258 310 0
259 310 0
260 310 0
261 310 0
262 310 0
-311 0
-304 310 -312 0
304 -310 -312 0
312 -310 -304 0
304 310 312 0
-24 -312 0
258 -313 -314 0
313 -258 -314 0
-258 -313 314 0
258 313 314 0
-4 -314 0
313 -259 -315 0
259 -313 -315 0
315 -313 -259 0
315 313 259 0
-7 315 0
313 -307 -316 0
307 -313 -316 0
-307 -313 316 0
313 307 316 0
-20 316 0
310 -313 -317 0
313 -310 -317 0
317 -310 -313 0
313 310 317 0
-24 -317 0
259 -318 -319 0
318 -259 -319 0
-259 -318 319 0
259 318 319 0
-4 -319 0
318 -260 -320 0
260 -318 -320 0
320 -318 -260 0
320 318 260 0
-7 320 0
318 -307 -321 0
307 -318 -321 0
-307 -318 321 0
318 307 321 0
-20 321 0
310 -318 -322 0
318 -310 -322 0
322 -310 -318 0
318 310 322 0
-24 -322 0
260 -323 -324 0
323 -260 -324 0
-260 -323 324 0
260 323 324 0
-4 -324 0
323 -261 -325 0
261 -323 -325 0
325 -323 -261 0
325 323 261 0
-7 325 0
323 -307 -326 0
307 -323 -326 0
-307 -323 326 0
323 307 326 0
-20 326 0
310 -323 -327 0
323 -310 -327 0
327 -310 -323 0
323 310 327 0
-24 -327 0
261 -328 -329 0
328 -261 -329 0
-261 -328 329 0
261 328 329 0
-4 -329 0
328 -262 -330 0
262 -328 -330 0
330 -328 -262 0
330 328 262 0
-7 330 0
328 -307 -331 0
307 -328 -331 0
-307 -328 331 0
328 307 331 0
-20 331 0
310 -328 -332 0
328 -310 -332 0
332 -310 -328 0
328 310 332 0
-24 -332 0
262 -333 -334 0
333 -262 -334 0
-262 -333 334 0
262 333 334 0
-4 -334 0
-257 333 -335 0
257 -333 -335 0
335 -333 -257 0
335 333 257 0
-7 335 0
333 -307 -336 0
307 -333 -336 0
-307 -333 336 0
333 307 336 0
-20 336 0
310 -333 -337 0
333 -310 -337 0
337 -310 -333 0
333 310 337 0
-24 -337 0
338 -339 -340 0
339 -338 -340 0
-338 -339 340 0
339 338 340 0
-4 -340 0
339 -341 -342 0
341 -339 -342 0
342 -339 -341 0
342 339 341 0
-7 342 0
-338 343 0
-341 343 0
-344 343 0
-345 343 0
-346 343 0
-347 343 0
-348 343 0
-349 343 0
-350 343 0
351 0
339 -343 -352 0
-339 343 -352 0
-339 -343 352 0
339 343 352 0
-20 352 0
338 353 0
341 353 0
344 353 0
345 353 0
346 353 0
347 353 0
348 353 0
349 353 0
350 353 0
-354 0
-339 353 -355 0
339 -353 -355 0
355 -353 -339 0
339 353 355 0
-24 -355 0
341 -356 -357 0
356 -341 -357 0
-341 -356 357 0
341 356 357 0
-4 -357 0
356 -344 -358 0
344 -356 -358 0
358 -356 -344 0
358 356 344 0
-7 358 0
-341 359 0
-344 359 0
-345 359 0
-346 359 0
-347 359 0
-348 359 0
-349 359 0
-350 359 0
360 0
356 -359 -361 0
-356 359 -361 0
-356 -359 361 0
356 359 361 0
-20 361 0
341 362 0
344 362 0
345 362 0
346 362 0
347 362 0
348 362 0
349 362 0
350 362 0
-363 0
-356 362 -364 0
356 -362 -364 0
364 -362 -356 0
356 362 364 0
-24 -364 0
344 -365 -366 0
365 -344 -366 0
-344 -365 366 0
344 365 366 0
-4 -366 0
365 -345 -367 0
345 -365 -367 0
367 -365 -345 0
367 365 345 0
-7 367 0
-344 368 0
-345 368 0
-346 368 0
-347 368 0
-348 368 0
-349 368 0
-350 368 0
369 0
365 -368 -370 0
-365 368 -370 0
-365 -368 370 0
365 368 370 0
-20 370 0
344 371 0
345 371 0
346 371 0
347 371 0
348 371 0
349 371 0
350 371 0
-372 0
-365 371 -373 0
365 -371 -373 0
373 -371 -365 0
365 371 373 0
-24 -373 0
345 -374 -375 0
374 -345 -375 0
-345 -374 375 0
345 374 375 0
-4 -375 0
374 -346 -376 0
346 -374 -376 0
376 -374 -346 0
376 374 346 0
-7 376 0
-345 377 0
-346 377 0
-347 377 0
-348 377 0
-349 377 0
-350 377 0
378 0
374 -377 -379 0
-374 377 -379 0
-374 -377 379 0
374 377 379 0
-20 379 0
345 380 0
346 380 0
347 380 0
348 380 0
349 380 0
350 380 0
-381 0
-374 380 -382 0
374 -380 -382 0
382 -380 -374 0
374 380 382 0
-24 -382 0
346 -383 -384 0
383 -346 -384 0
-346 -383 384 0
346 383 384 0
-4 -384 0
383 -347 -385 0
347 -383 -385 0
385 -383 -347 0
385 383 347 0
-7 385 0
-346 386 0
-347 386 0
-348 386 0
-349 386 0
-350 386 0
346 347 348 349 350 -386 0
383 -386 -387 0
-383 386 -387 0
-383 -386 387 0
383 386 387 0
-20 387 0
346 388 0
347 388 0
348 388 0
349 388 0
350 388 0
-389 0
-383 388 -390 0
383 -388 -390 0
390 -388 -383 0
383 388 390 0
-24 -390 0
347 -391 -392 0
391 -347 -392 0
-347 -391 392 0
347 391 392 0
-4 -392 0
391 -348 -393 0
348 -391 -393 0
393 -391 -348 0
393 391 348 0
-7 393 0
391 -386 -394 0
386 -391 -394 0
-386 -391 394 0
391 386 394 0
-20 394 0
388 -391 -395 0
391 -388 -395 0
395 -388 -391 0
391 388 395 0
-24 -395 0
348 -396 -397 0
396 -348 -397 0
-348 -396 397 0
348 396 397 0
-4 -397 0
396 -349 -398 0
349 -396 -398 0
398 -396 -349 0
398 396 349 0
-7 398 0
396 -386 -399 0
386 -396 -399 0
-386 -396 399 0
396 386 399 0
-20 399 0
388 -396 -400 0
396 -388 -400 0
400 -388 -396 0
396 388 400 0
-24 -400 0
349 -401 -402 0
401 -349 -402 0
-349 -401 402 0
349 401 402 0
-4 -402 0
401 -350 -403 0
350 -401 -403 0
403 -401 -350 0
403 401 350 0
-7 403 0
401 -386 -404 0
386 -401 -404 0
-386 -401 404 0
401 386 404 0
-20 404 0
388 -401 -405 0
401 -388 -405 0
405 -388 -401 0
401 388 405 0
-24 -405 0
350 -406 -407 0
406 -350 -407 0
-350 -406 407 0
350 406 407 0
-4 -407 0
-346 406 -408 0
346 -406 -408 0
408 -406 -346 0
408 406 346 0
-7 408 0
406 -386 -409 0
386 -406 -409 0
-386 -406 409 0
406 386 409 0
-20 409 0
388 -406 -410 0
406 -388 -410 0
410 -388 -406 0
406 388 410 0
-24 -410 0
411 -412 -413 0
412 -411 -413 0
-411 -412 413 0
412 411 413 0
-4 -413 0
412 -414 -415 0
414 -412 -415 0
415 -412 -414 0
415 412 414 0
-7 415 0
-411 416 0
-414 416 0
-417 416 0
-418 416 0
411 414 417 418 -416 0
412 -416 -419 0
-412 416 -419 0
-412 -416 419 0
412 416 419 0
-20 419 0
411 420 0
414 420 0
417 420 0
418 420 0
-421 0
-412 420 -422 0
412 -420 -422 0
422 -420 -412 0
412 420 422 0
-24 -422 0
414 -423 -424 0
423 -414 -424 0
-414 -423 424 0
414 423 424 0
-4 -424 0
423 -417 -425 0
417 -423 -425 0
425 -423 -417 0
425 423 417 0
-7 425 0
-414 426 0
-417 426 0
-418 426 0
414 417 418 -426 0
423 -426 -427 0
-423 426 -427 0
-423 -426 427 0
423 426 427 0
-20 427 0
414 428 0
417 428 0
418 428 0
-414 -417 -418 -428 0
-423 428 -429 0
423 -428 -429 0
429 -428 -423 0
423 428 429 0
-24 -429 0
417 -430 -431 0
430 -417 -431 0
-417 -430 431 0
417 430 431 0
-4 -431 0
430 -418 -432 0
418 -430 -432 0
432 -430 -418 0
432 430 418 0
-7 432 0
-417 433 0
-418 433 0
417 418 -433 0
430 -433 -434 0
-430 433 -434 0
-430 -433 434 0
430 433 434 0
-20 434 0
417 435 0
418 435 0
-417 -418 -435 0
-430 435 -436 0
430 -435 -436 0
436 -435 -430 0
430 435 436 0
-24 -436 0
418 -437 -438 0
437 -418 -438 0
-418 -437 438 0
418 437 438 0
-4 -438 0
437 -418 -439 0
418 -437 -439 0
439 -437 -418 0
439 437 418 0
-7 439 0
-20 439 0
-24 439 0
440 -441 -442 0
441 -440 -442 0
-440 -441 442 0
441 440 442 0
-4 -442 0
441 -443 -444 0
443 -441 -444 0
444 -441 -443 0
444 441 443 0
-7 444 0
-440 445 0
-443 445 0
-446 445 0
-447 445 0
-448 445 0
-449 445 0
-450 445 0
-451 445 0
-452 445 0
453 0
441 -445 -454 0
-441 445 -454 0
-441 -445 454 0
441 445 454 0
-20 454 0
440 455 0
443 455 0
446 455 0
447 455 0
448 455 0
449 455 0
450 455 0
451 455 0
452 455 0
-456 0
-441 455 -457 0
441 -455 -457 0
457 -455 -441 0
441 455 457 0
-24 -457 0
443 -458 -459 0
458 -443 -459 0
-443 -458 459 0
443 458 459 0
-4 -459 0
458 -446 -460 0
446 -458 -460 0
460 -458 -446 0
460 458 446 0
-7 460 0
-443 461 0
-446 461 0
-447 461 0
-448 461 0
-449 461 0
-450 461 0
-451 461 0
-452 461 0
462 0
458 -461 -463 0
-458 461 -463 0
-458 -461 463 0
458 461 463 0
-20 463 0
443 464 0
446 464 0
447 464 0
448 464 0
449 464 0
450 464 0
451 464 0
452 464 0
-465 0
-458 464 -466 0
458 -464 -466 0
466 -464 -458 0
458 464 466 0
-24 -466 0
446 -467 -468 0
467 -446 -468 0
-446 -467 468 0
446 467 468 0
-4 -468 0
467 -447 -469 0
447 -467 -469 0
469 -467 -447 0
469 467 447 0
-7 469 0
-446 470 0
-447 470 0
-448 470 0
-449 470 0
-450 470 0
-451 470 0
-452 470 0
471 0
467 -470 -472 0
-467 470 -472 0
-467 -470 472 0
467 470 472 0
-20 472 0
446 473 0
447 473 0
448 473 0
449 473 0
450 473 0
451 473 0
452 473 0
-474 0
-467 473 -475 0
467 -473 -475 0
475 -473 -467 0
467 473 475 0
-24 -475 0
447 -476 -477 0
476 -447 -477 0
-447 -476 477 0
447 476 477 0
-4 -477 0
476 -448 -478 0
448 -476 -478 0
478 -476 -448 0
478 476 448 0
-7 478 0
-447 479 0
-448 479 0
-449 479 0
-450 479 0
-451 479 0
-452 479 0
480 0
476 -479 -481 0
-476 479 -481 0
-476 -479 481 0
476 479 481 0
-20 481 0
447 482 0
448 482 0
449 482 0
450 482 0
451 482 0
452 482 0
-483 0
-476 482 -484 0
476 -482 -484 0
484 -482 -476 0
476 482 484 0
-24 -484 0
448 -485 -486 0
485 -448 -486 0
-448 -485 486 0
448 485 486 0
-4 -486 0
485 -449 -487 0
449 -485 -487 0
487 -485 -449 0
487 485 449 0
-7 487 0
-448 488 0
-449 488 0
-450 488 0
-451 488 0
-452 488 0
448 449 450 451 452 -488 0
485 -488 -489 0
-485 488 -489 0
-485 -488 489 0
485 488 489 0
-20 489 0
448 490 0
449 490 0
450 490 0
451 490 0
452 490 0
-491 0
-485 490 -492 0
485 -490 -492 0
492 -490 -485 0
485 490 492 0
-24 -492 0
449 -493 -494 0
493 -449 -494 0
-449 -493 494 0
449 493 494 0
-4 -494 0
493 -450 -495 0
450 -493 -495 0
495 -493 -450 0
495 493 450 0
-7 495 0
493 -488 -496 0
488 -493 -496 0
-488 -493 496 0
493 488 496 0
-20 496 0
490 -493 -497 0
493 -490 -497 0
497 -490 -493 0
493 490 497 0
-24 -497 0
450 -498 -499 0
498 -450 -499 0
-450 -498 499 0
450 498 499 0
-4 -499 0
498 -451 -500 0
451 -498 -500 0
500 -498 -451 0
500 498 451 0
-7 500 0
498 -488 -501 0
488 -498 -501 0
-488 -498 501 0
498 488 501 0
-20 501 0
490 -498 -502 0
498 -490 -502 0
502 -490 -498 0
498 490 502 0
-24 -502 0
451 -503 -504 0
503 -451 -504 0
-451 -503 504 0
451 503 504 0
-4 -504 0
503 -452 -505 0
452 -503 -505 0
505 -503 -452 0
505 503 452 0
-7 505 0
503 -488 -506 0
488 -503 -506 0
-488 -503 506 0
503 488 506 0
-20 506 0
490 -503 -507 0
503 -490 -507 0
507 -490 -503 0
503 490 507 0
-24 -507 0
452 -508 -509 0
508 -452 -509 0
-452 -508 509 0
452 508 509 0
-4 -509 0
-448 508 -510 0
448 -508 -510 0
510 -508 -448 0
510 508 448 0
-7 510 0
508 -488 -511 0
488 -508 -511 0
-488 -508 511 0
508 488 511 0
-20 511 0
490 -508 -512 0
508 -490 -512 0
512 -490 -508 0
508 490 512 0
-24 -512 0
513 -514 -515 0
514 -513 -515 0
-513 -514 515 0
514 513 515 0
-4 -515 0
514 -516 -517 0
516 -514 -517 0
517 -514 -516 0
517 514 516 0
-7 517 0
-513 518 0
-516 518 0
-519 518 0
-520 518 0
-521 518 0
-522 518 0
-523 518 0
-524 518 0
-525 518 0
-526 518 0
527 0
514 -518 -528 0
-514 518 -528 0
-514 -518 528 0
514 518 528 0
-20 528 0
513 529 0
516 529 0
519 529 0
520 529 0
521 529 0
522 529 0
523 529 0
524 529 0
525 529 0
526 529 0
-530 0
-514 529 -531 0
514 -529 -531 0
531 -529 -514 0
514 529 531 0
-24 -531 0
516 -532 -533 0
532 -516 -533 0
-516 -532 533 0
516 532 533 0
-4 -533 0
532 -519 -534 0
519 -532 -534 0
534 -532 -519 0
534 532 519 0
-7 534 0
-516 535 0
-519 535 0
-520 535 0
-521 535 0
-522 535 0
-523 535 0
-524 535 0
-525 535 0
-526 535 0
536 0
532 -535 -537 0
-532 535 -537 0
-532 -535 537 0
532 535 537 0
-20 537 0
516 538 0
519 538 0
520 538 0
521 538 0
522 538 0
523 538 0
524 538 0
525 538 0
526 538 0
-539 0
-532 538 -540 0
532 -538 -540 0
540 -538 -532 0
532 538 540 0
-24 -540 0
519 -541 -542 0
541 -519 -542 0
-519 -541 542 0
519 541 542 0
-4 -542 0
541 -520 -543 0
520 -541 -543 0
543 -541 -520 0
543 541 520 0
-7 543 0
-519 544 0
-520 544 0
-521 544 0
-522 544 0
-523 544 0
-524 544 0
-525 544 0
-526 544 0
545 0
541 -544 -546 0
-541 544 -546 0
-541 -544 546 0
541 544 546 0
-20 546 0
519 547 0
520 547 0
521 547 0
522 547 0
523 547 0
524 547 0
525 547 0
526 547 0
-548 0
-541 547 -549 0
541 -547 -549 0
549 -547 -541 0
541 547 549 0
-24 -549 0
520 -550 -551 0
550 -520 -551 0
-520 -550 551 0
520 550 551 0
-4 -551 0
550 -521 -552 0
521 -550 -552 0
552 -550 -521 0
552 550 521 0
-7 552 0
-520 553 0
-521 553 0
-522 553 0
-523 553 0
-524 553 0
-525 553 0
-526 553 0
554 0
550 -553 -555 0
-550 553 -555 0
-550 -553 555 0
550 553 555 0
-20 555 0
520 556 0
521 556 0
522 556 0
523 556 0
524 556 0
525 556 0
526 556 0
-557 0
-550 556 -558 0
550 -556 -558 0
558 -556 -550 0
550 556 558 0
-24 -558 0
521 -559 -560 0
559 -521 -560 0
-521 -559 560 0
521 559 560 0
-4 -560 0
559 -522 -561 0
522 -559 -561 0
561 -559 -522 0
561 559 522 0
-7 561 0
-521 562 0
-522 562 0
-523 562 0
-524 562 0
-525 562 0
-526 562 0
563 0
559 -562 -564 0
-559 562 -564 0
-559 -562 564 0
559 562 564 0
-20 564 0
521 565 0
522 565 0
523 565 0
524 565 0
525 565 0
526 565 0
-566 0
-559 565 -567 0
559 -565 -567 0
567 -565 -559 0
559 565 567 0
-24 -567 0
522 -568 -569 0
568 -522 -569 0
-522 -568 569 0
522 568 569 0
-4 -569 0
568 -523 -570 0
523 -568 -570 0
570 -568 -523 0
570 568 523 0
-7 570 0
-522 571 0
-523 571 0
-524 571 0
-525 571 0
-526 571 0
522 523 524 525 526 -571 0
568 -571 -572 0
-568 571 -572 0
-568 -571 572 0
568 571 572 0
-20 572 0
522 573 0
523 573 0
524 573 0
525 573 0
526 573 0
-574 0
-568 573 -575 0
568 -573 -575 0
575 -573 -568 0
568 573 575 0
-24 -575 0
523 -576 -577 0
576 -523 -577 0
-523 -576 577 0
523 576 577 0
-4 -577 0
576 -524 -578 0
524 -576 -578 0
578 -576 -524 0
578 576 524 0
-7 578 0
-523 579 0
-524 579 0
-525 579 0
-526 579 0
523 524 525 526 -579 0
576 -579 -580 0
-576 579 -580 0
-576 -579 580 0
576 579 580 0
-20 580 0
523 581 0
524 581 0
525 581 0
526 581 0
-582 0
-576 581 -583 0
576 -581 -583 0
583 -581 -576 0
576 581 583 0
-24 -583 0
524 -584 -585 0
584 -524 -585 0
-524 -584 585 0
524 584 585 0
-4 -585 0
584 -525 -586 0
525 -584 -586 0
586 -584 -525 0
586 584 525 0
-7 586 0
584 -579 -587 0
579 -584 -587 0
-579 -584 587 0
584 579 587 0
-20 587 0
581 -584 -588 0
584 -581 -588 0
588 -581 -584 0
584 581 588 0
-24 -588 0
525 -589 -590 0
589 -525 -590 0
-525 -589 590 0
525 589 590 0
-4 -590 0
589 -526 -591 0
526 -589 -591 0
591 -589 -526 0
591 589 526 0
-7 591 0
589 -579 -592 0
579 -589 -592 0
-579 -589 592 0
589 579 592 0
-20 592 0
581 -589 -593 0
589 -581 -593 0
593 -581 -589 0
589 581 593 0
-24 -593 0
526 -594 -595 0
594 -526 -595 0
-526 -594 595 0
526 594 595 0
-4 -595 0
-523 594 -596 0
523 -594 -596 0
596 -594 -523 0
596 594 523 0
-7 596 0
594 -579 -597 0
579 -594 -597 0
-579 -594 597 0
594 579 597 0
-20 597 0
581 -594 -598 0
594 -581 -598 0
598 -581 -594 0
594 581 598 0
-24 -598 0
599 -600 -601 0
600 -599 -601 0
-599 -600 601 0
600 599 601 0
-4 -601 0
600 -602 -603 0
602 -600 -603 0
603 -600 -602 0
603 600 602 0
-7 603 0
-599 604 0
-602 604 0
-605 604 0
-606 604 0
-607 604 0
-608 604 0
-609 604 0
-610 604 0
-611 604 0
-612 604 0
-613 604 0
614 0
600 -604 -615 0
-600 604 -615 0
-600 -604 615 0
600 604 615 0
-20 615 0
599 616 0
602 616 0
605 616 0
606 616 0
607 616 0
608 616 0
609 616 0
610 616 0
611 616 0
612 616 0
613 616 0
-617 0
-600 616 -618 0
600 -616 -618 0
618 -616 -600 0
600 616 618 0
-24 -618 0
602 -619 -620 0
619 -602 -620 0
-602 -619 620 0
602 619 620 0
-4 -620 0
619 -605 -621 0
605 -619 -621 0
621 -619 -605 0
621 619 605 0
-7 621 0
-602 622 0
-605 622 0
-606 622 0
-607 622 0
-608 622 0
-609 622 0
-610 622 0
-611 622 0
-612 622 0
-613 622 0
623 0
619 -622 -624 0
-619 622 -624 0
-619 -622 624 0
619 622 624 0
-20 624 0
602 625 0
605 625 0
606 625 0
607 625 0
608 625 0
609 625 0
610 625 0
611 625 0
612 625 0
613 625 0
-626 0
-619 625 -627 0
619 -625 -627 0
627 -625 -619 0
619 625 627 0
-24 -627 0
605 -628 -629 0
628 -605 -629 0
-605 -628 629 0
605 628 629 0
-4 -629 0
628 -606 -630 0
606 -628 -630 0
630 -628 -606 0
630 628 606 0
-7 630 0
-605 631 0
-606 631 0
-607 631 0
-608 631 0
-609 631 0
-610 631 0
-611 631 0
-612 631 0
-613 631 0
632 0
628 -631 -633 0
-628 631 -633 0
-628 -631 633 0
628 631 633 0
-20 633 0
605 634 0
606 634 0
607 634 0
608 634 0
609 634 0
610 634 0
611 634 0
612 634 0
613 634 0
-635 0
-628 634 -636 0
628 -634 -636 0
636 -634 -628 0
628 634 636 0
-24 -636 0
606 -637 -638 0
637 -606 -638 0
-606 -637 638 0
606 637 638 0
-4 -638 0
637 -607 -639 0
607 -637 -639 0
639 -637 -607 0
639 637 607 0
-7 639 0
-606 640 0
-607 640 0
-608 640 0
-609 640 0
-610 640 0
-611 640 0
-612 640 0
-613 640 0
641 0
637 -640 -642 0
-637 640 -642 0
-637 -640 642 0
637 640 642 0
-20 642 0
606 643 0
607 643 0
608 643 0
609 643 0
610 643 0
611 643 0
612 643 0
613 643 0
-644 0
-637 643 -645 0
637 -643 -645 0
645 -643 -637 0
637 643 645 0
-24 -645 0
607 -646 -647 0
646 -607 -647 0
-607 -646 647 0
607 646 647 0
-4 -647 0
646 -608 -648 0
608 -646 -648 0
648 -646 -608 0
648 646 608 0
-7 648 0
-607 649 0
-608 649 0
-609 649 0
-610 649 0
-611 649 0
-612 649 0
-613 649 0
650 0
646 -649 -651 0
-646 649 -651 0
-646 -649 651 0
646 649 651 0
-20 651 0
607 652 0
608 652 0
609 652 0
610 652 0
611 652 0
612 652 0
613 652 0
-653 0
-646 652 -654 0
646 -652 -654 0
654 -652 -646 0
646 652 654 0
-24 -654 0
608 -655 -656 0
655 -608 -656 0
-608 -655 656 0
608 655 656 0
-4 -656 0
655 -609 -657 0
609 -655 -657 0
657 -655 -609 0
657 655 609 0
-7 657 0
-608 658 0
-609 658 0
-610 658 0
-611 658 0
-612 658 0
-613 658 0
659 0
655 -658 -660 0
-655 658 -660 0
-655 -658 660 0
655 658 660 0
-20 660 0
608 661 0
609 661 0
610 661 0
611 661 0
612 661 0
613 661 0
-662 0
-655 661 -663 0
655 -661 -663 0
663 -661 -655 0
655 661 663 0
-24 -663 0
609 -664 -665 0
664 -609 -665 0
-609 -664 665 0
609 664 665 0
-4 -665 0
664 -610 -666 0
610 -664 -666 0
666 -664 -610 0
666 664 610 0
-7 666 0
664 -658 -667 0
658 -664 -667 0
-658 -664 667 0
664 658 667 0
-20 667 0
661 -664 -668 0
664 -661 -668 0
668 -661 -664 0
664 661 668 0
-24 -668 0
610 -669 -670 0
669 -610 -670 0
-610 -669 670 0
610 669 670 0
-4 -670 0
669 -611 -671 0
611 -669 -671 0
671 -669 -611 0
671 669 611 0
-7 671 0
669 -658 -672 0
658 -669 -672 0
-658 -669 672 0
669 658 672 0
-20 672 0
661 -669 -673 0
669 -661 -673 0
673 -661 -669 0
669 661 673 0
-24 -673 0
611 -674 -675 0
674 -611 -675 0
-611 -674 675 0
611 674 675 0
-4 -675 0
674 -612 -676 0
612 -674 -676 0
676 -674 -612 0
676 674 612 0
-7 676 0
674 -658 -677 0
658 -674 -677 0
-658 -674 677 0
674 658 677 0
-20 677 0
661 -674 -678 0
674 -661 -678 0
678 -661 -674 0
674 661 678 0
-24 -678 0
612 -679 -680 0
679 -612 -680 0
-612 -679 680 0
612 679 680 0
-4 -680 0
679 -613 -681 0
613 -679 -681 0
681 -679 -613 0
681 679 613 0
-7 681 0
679 -658 -682 0
658 -679 -682 0
-658 -679 682 0
679 658 682 0
-20 682 0
661 -679 -683 0
679 -661 -683 0
683 -661 -679 0
679 661 683 0
-24 -683 0
613 -684 -685 0
684 -613 -685 0
-613 -684 685 0
613 684 685 0
-4 -685 0
-608 684 -686 0
608 -684 -686 0
686 -684 -608 0
686 684 608 0
-7 686 0
684 -658 -687 0
658 -684 -687 0
-658 -684 687 0
684 658 687 0
-20 687 0
661 -684 -688 0
684 -661 -688 0
688 -661 -684 0
684 661 688 0
-24 -688 0
689 -690 -691 0
690 -689 -691 0
-689 -690 691 0
690 689 691 0
-4 -691 0
690 -692 -693 0
692 -690 -693 0
693 -690 -692 0
693 690 692 0
-7 693 0
-689 694 0
-692 694 0
-695 694 0
-696 694 0
-697 694 0
-698 694 0
-699 694 0
-700 694 0
701 0
690 -694 -702 0
-690 694 -702 0
-690 -694 702 0
690 694 702 0
-20 702 0
689 703 0
692 703 0
695 703 0
696 703 0
697 703 0
698 703 0
699 703 0
700 703 0
-704 0
-690 703 -705 0
690 -703 -705 0
705 -703 -690 0
690 703 705 0
-24 -705 0
692 -706 -707 0
706 -692 -707 0
-692 -706 707 0
692 706 707 0
-4 -707 0
706 -695 -708 0
695 -706 -708 0
708 -706 -695 0
708 706 695 0
-7 708 0
-692 709 0
-695 709 0
-696 709 0
-697 709 0
-698 709 0
-699 709 0
-700 709 0
710 0
706 -709 -711 0
-706 709 -711 0
-706 -709 711 0
706 709 711 0
-20 711 0
692 712 0
695 712 0
696 712 0
697 712 0
698 712 0
699 712 0
700 712 0
-713 0
-706 712 -714 0
706 -712 -714 0
714 -712 -706 0
706 712 714 0
-24 -714 0
695 -715 -716 0
715 -695 -716 0
-695 -715 716 0
695 715 716 0
-4 -716 0
715 -696 -717 0
696 -715 -717 0
717 -715 -696 0
717 715 696 0
-7 717 0
-695 718 0
-696 718 0
-697 718 0
-698 718 0
-699 718 0
-700 718 0
719 0
715 -718 -720 0
-715 718 -720 0
-715 -718 720 0
715 718 720 0
-20 720 0
695 721 0
696 721 0
697 721 0
698 721 0
699 721 0
700 721 0
-722 0
-715 721 -723 0
715 -721 -723 0
723 -721 -715 0
715 721 723 0
-24 -723 0
696 -724 -725 0
724 -696 -725 0
-696 -724 725 0
696 724 725 0
-4 -725 0
724 -697 -726 0
697 -724 -726 0
726 -724 -697 0
726 724 697 0
-7 726 0
-696 727 0
-697 727 0
-698 727 0
-699 727 0
-700 727 0
696 697 698 699 700 -727 0
724 -727 -728 0
-724 727 -728 0
-724 -727 728 0
724 727 728 0
-20 728 0
696 729 0
697 729 0
698 729 0
699 729 0
700 729 0
-730 0
-724 729 -731 0
724 -729 -731 0
731 -729 -724 0
724 729 731 0
-24 -731 0
697 -732 -733 0
732 -697 -733 0
-697 -732 733 0
697 732 733 0
-4 -733 0
732 -698 -734 0
698 -732 -734 0
734 -732 -698 0
734 732 698 0
-7 734 0
-697 735 0
-698 735 0
-699 735 0
-700 735 0
697 698 699 700 -735 0
732 -735 -736 0
-732 735 -736 0
-732 -735 736 0
732 735 736 0
-20 736 0
697 737 0
698 737 0
699 737 0
700 737 0
-738 0
-732 737 -739 0
732 -737 -739 0
739 -737 -732 0
732 737 739 0
-24 -739 0
698 -740 -741 0
740 -698 -741 0
-698 -740 741 0
698 740 741 0
-4 -741 0
740 -699 -742 0
699 -740 -742 0
742 -740 -699 0
742 740 699 0
-7 742 0
740 -735 -743 0
735 -740 -743 0
-735 -740 743 0
740 735 743 0
-20 743 0
737 -740 -744 0
740 -737 -744 0
744 -737 -740 0
740 737 744 0
-24 -744 0
699 -745 -746 0
745 -699 -746 0
-699 -745 746 0
699 745 746 0
-4 -746 0
745 -700 -747 0
700 -745 -747 0
747 -745 -700 0
747 745 700 0
-7 747 0
745 -735 -748 0
735 -745 -748 0
-735 -745 748 0
745 735 748 0
-20 748 0
737 -745 -749 0
745 -737 -749 0
749 -737 -745 0
745 737 749 0
-24 -749 0
700 -750 -751 0
750 -700 -751 0
-700 -750 751 0
700 750 751 0
-4 -751 0
-697 750 -752 0
697 -750 -752 0
752 -750 -697 0
752 750 697 0
-7 752 0
750 -735 -753 0
735 -750 -753 0
-735 -750 753 0
750 735 753 0
-20 753 0
737 -750 -754 0
750 -737 -754 0
754 -737 -750 0
750 737 754 0
-24 -754 0
755 -756 -757 0
756 -755 -757 0
-755 -756 757 0
756 755 757 0
-4 -757 0
756 -755 -758 0
755 -756 -758 0
758 -756 -755 0
758 756 755 0
-7 758 0
-20 758 0
-24 758 0
759 -760 -761 0
760 -759 -761 0
-759 -760 761 0
760 759 761 0
-4 -761 0
760 -759 -762 0
759 -760 -762 0
762 -760 -759 0
762 760 759 0
-7 762 0
-20 762 0
-24 762 0
763 -764 -765 0
764 -763 -765 0
-763 -764 765 0
764 763 765 0
-4 -765 0
764 -763 -766 0
763 -764 -766 0
766 -764 -763 0
766 764 763 0
-7 766 0
-20 766 0
-24 766 0
767 -768 -769 0
768 -767 -769 0
-767 -768 769 0
768 767 769 0
-4 -769 0
768 -767 -770 0
767 -768 -770 0
770 -768 -767 0
770 768 767 0
-7 770 0
-20 770 0
-24 770 0
771 -772 -773 0
772 -771 -773 0
-771 -772 773 0
772 771 773 0
-4 -773 0
772 -771 -774 0
771 -772 -774 0
774 -772 -771 0
774 772 771 0
-7 774 0
-20 774 0
-24 774 0
775 -776 -777 0
776 -775 -777 0
-775 -776 777 0
776 775 777 0
-4 -777 0
776 -775 -778 0
775 -776 -778 0
778 -776 -775 0
778 776 775 0
-7 778 0
-20 778 0
-24 778 0
779 -780 -781 0
780 -779 -781 0
-779 -780 781 0
780 779 781 0
-4 -781 0
780 -779 -782 0
779 -780 -782 0
782 -780 -779 0
782 780 779 0
-7 782 0
-20 782 0
-24 782 0
783 -784 -785 0
784 -783 -785 0
-783 -784 785 0
784 783 785 0
-4 -785 0
784 -783 -786 0
783 -784 -786 0
786 -784 -783 0
786 784 783 0
-7 786 0
-20 786 0
-24 786 0
787 -788 -789 0
788 -787 -789 0
-787 -788 789 0
788 787 789 0
-4 -789 0
788 -787 -790 0
787 -788 -790 0
790 -788 -787 0
790 788 787 0
-7 790 0
-20 790 0
-24 790 0
791 -792 -793 0
792 -791 -793 0
-791 -792 793 0
792 791 793 0
-4 -793 0
792 -791 -794 0
791 -792 -794 0
794 -792 -791 0
794 792 791 0
-7 794 0
-20 794 0
-24 794 0
4 7 20 24 0
-4 -7 0
-4 -20 0
-4 -24 0
-7 -20 0
-7 -24 0
-20 -24 0
2 0
96 0
159 0
249 0
339 0
412 0
441 0
514 0
600 0
690 0
-756 0
-760 0
-764 0
-768 0
-772 0
-776 0
-780 0
-784 0
-788 0
-792 0
102 -347 0
-102 347 0
103 -348 0
-103 348 0
104 -349 0
-104 349 0
105 -350 0
-105 350 0
106 -346 0
-106 346 0
102 -450 0
-102 450 0
103 -451 0
-103 451 0
104 -452 0
-104 452 0
105 -448 0
-105 448 0
106 -449 0
-106 449 0
166 -256 0
-166 256 0
167 -257 0
-167 257 0
168 -258 0
-168 258 0
169 -259 0
-169 259 0
170 -260 0
-170 260 0
171 -261 0
-171 261 0
172 -262 0
-172 262 0
346 -449 0
-346 449 0
347 -450 0
-347 450 0
348 -451 0
-348 451 0
349 -452 0
-349 452 0
350 -448 0
-350 448 0
418 -755 0
-418 755 0
418 -759 0
-418 759 0
418 -763 0
-418 763 0
418 -767 0
-418 767 0
418 -771 0
-418 771 0
418 -775 0
-418 775 0
418 -779 0
-418 779 0
418 -783 0
-418 783 0
418 -787 0
-418 787 0
418 -791 0
-418 791 0
523 -699 0
-523 699 0
524 -700 0
-524 700 0
525 -697 0
-525 697 0
526 -698 0
-526 698 0
755 -759 0
-755 759 0
755 -763 0
-755 763 0
755 -767 0
-755 767 0
755 -771 0
-755 771 0
755 -775 0
-755 775 0
755 -779 0
-755 779 0
755 -783 0
-755 783 0
755 -787 0
-755 787 0
755 -791 0
-755 791 0
759 -763 0
-759 763 0
759 -767 0
-759 767 0
759 -771 0
-759 771 0
759 -775 0
-759 775 0
759 -779 0
-759 779 0
759 -783 0
-759 783 0
759 -787 0
-759 787 0
759 -791 0
-759 791 0
763 -767 0
-763 767 0
763 -771 0
-763 771 0
763 -775 0
-763 775 0
763 -779 0
-763 779 0
763 -783 0
-763 783 0
763 -787 0
-763 787 0
763 -791 0
-763 791 0
767 -771 0
-767 771 0
767 -775 0
-767 775 0
767 -779 0
-767 779 0
767 -783 0
-767 783 0
767 -787 0
-767 787 0
767 -791 0
-767 791 0
771 -775 0
-771 775 0
771 -779 0
-771 779 0
771 -783 0
-771 783 0
771 -787 0
-771 787 0
771 -791 0
-771 791 0
775 -779 0
-775 779 0
775 -783 0
-775 783 0
775 -787 0
-775 787 0
775 -791 0
-775 791 0
779 -783 0
-779 783 0
779 -787 0
-779 787 0
779 -791 0
-779 791 0
783 -787 0
-783 787 0
783 -791 0
-783 791 0
787 -791 0
-787 791 0
